##############################################
####                SECTION: basic               
##############################################
 ecut 20
 kptopt 1
 ngkpt 8 8 8
 nshiftk 1
 shiftk    0.0    0.0    0.0
 occopt 6
 nstep 50
 tolvrs 1e-10
##############################################
####               SECTION: gstate               
##############################################
 chkprim 0
 tsmear 0.01
##############################################
####                SECTION: paral               
##############################################
 paral_kgb 1
 npimage 1
 npkpt 4
 npspinor 1
 npfft 1
 npband 1
 bandpp 1
##############################################
####                  STRUCTURE                  
##############################################
 natom 4
 ntypat 1
 typat
 1 1 1
 1
 znucl 13
 xred
    0.0000000000    0.0000000000    0.0000000000
    0.5000000000    0.5000000000    0.0000000000
    0.5000000000    0.0000000000    0.5000000000
    0.0000000000    0.5000000000    0.5000000000
 acell    1.0    1.0    1.0
 rprim
    7.6368857782    0.0000000000    0.0000000000
    0.0000000000    7.6368857782    0.0000000000
    0.0000000000    0.0000000000    7.6368857782


#<JSON>
#{
#    "pseudos": [
#        {
#            "basename": "Al.psp8",
#            "type": "NcAbinitPseudo",
#            "symbol": "Al",
#            "Z": 13,
#            "Z_val": 3.0,
#            "l_max": 2,
#            "md5": "57224185a50eb565dff7432e4aa35376",
#            "filepath": "/opt/pseudo_dojo/pseudo_dojo/pseudos/ONCVPSP-PBE-PDv0.4/Al/Al.psp8",
#            "@module": "pymatgen.io.abinit.pseudos",
#            "@class": "NcAbinitPseudo"
#        }
#    ]
#}
#</JSON>
